33D32945 STP File, STP Format Version 1.0

SECTION Comment
Name    "i080-305"
Creator "Cees Duin"
Remark  "Incidence graph"
END

SECTION Graph
Nodes 80
Edges 120
E 1 11 293
E 1 23 205
E 1 45 204
E 1 53 200
E 2 51 188
E 2 52 197
E 2 54 209
E 3 18 296
E 3 40 199
E 4 34 204
E 4 43 198
E 4 73 197
E 5 46 203
E 6 9 293
E 6 78 200
E 7 24 198
E 7 68 198
E 8 23 200
E 8 25 189
E 8 37 197
E 8 65 201
E 9 66 198
E 9 69 205
E 10 19 300
E 10 45 205
E 10 58 193
E 10 63 204
E 11 34 204
E 11 42 205
E 11 71 195
E 11 75 203
E 12 22 206
E 12 60 204
E 13 36 201
E 14 15 301
E 14 23 208
E 14 33 195
E 14 70 196
E 15 41 211
E 15 74 208
E 15 78 199
E 16 22 199
E 16 39 196
E 16 55 206
E 17 27 200
E 17 59 198
E 18 39 197
E 18 48 193
E 18 60 198
E 19 58 205
E 20 23 206
E 20 75 192
E 20 76 198
E 21 30 100
E 21 72 97
E 22 78 99
E 23 26 98
E 24 72 100
E 25 38 100
E 25 40 90
E 25 75 100
E 26 31 100
E 26 40 97
E 27 29 100
E 27 52 92
E 27 62 98
E 27 70 97
E 27 75 100
E 27 79 108
E 28 42 96
E 30 48 94
E 30 56 97
E 30 66 96
E 32 42 96
E 33 79 105
E 34 71 93
E 35 70 103
E 35 72 110
E 36 54 100
E 37 46 93
E 37 72 92
E 38 43 100
E 39 51 96
E 39 62 96
E 40 65 99
E 41 52 97
E 41 59 101
E 41 67 101
E 43 52 86
E 43 78 97
E 44 55 96
E 44 66 95
E 45 49 93
E 45 62 101
E 45 74 118
E 45 79 100
E 47 62 108
E 48 60 99
E 49 64 93
E 50 67 96
E 52 57 99
E 52 75 102
E 52 80 94
E 53 67 98
E 53 68 100
E 55 67 95
E 58 60 99
E 59 66 97
E 59 68 105
E 60 61 103
E 62 69 98
E 62 80 108
E 63 70 92
E 64 72 98
E 66 72 98
E 66 79 92
E 67 78 100
E 68 72 96
E 70 77 97
E 76 78 107
END

SECTION Terminals
Terminals 20
T 1
T 2
T 3
T 4
T 5
T 6
T 7
T 8
T 9
T 10
T 11
T 12
T 13
T 14
T 15
T 16
T 17
T 18
T 19
T 20
END

EOF
